NAME : P-n101-k4
COMMENT : (Augerat et al, No of trucks: 4, Optimal value: 681)
TYPE : CVRP
DIMENSION : 101
EDGE_WEIGHT_TYPE : EUC_2D
CAPACITY : 400
NODE_COORD_SECTION
1 4 4
2 8 7
3 0 1
4 0 7
5 1 0
6 1 2
7 1 6
8 1 8
9 6 2
10 6 6
11 7 0
12 7 8
13 8 1
DEMAND_SECTION
1 1
2 23
3 7
4 13
5 19
6 26
7 3
8 5
9 9
10 16
11 16
12 12
13 19

DEPOT_SECTION
 1
 -1
EOF
